100
3254
65 2
90 3
92 9
89 9
53 7
60 8
71 10
96 15
85 18
81 18
37 9
24 6
86 22
78 22
40 12
86 27
95 31
42 16
76 29
58 24
86 36
100 44
85 39
78 36
84 45
78 43
81 52
3 2
58 39
93 63
13 9
97 72
69 52
85 65
34 26
36 28
72 59
40 33
38 32
90 79
82 75
24 23
35 34
98 96
61 60
68 69
76 78
61 66
59 65
79 96
55 68
53 68
77 99
67 87
77 100
53 70
27 36
46 62
35 52
37 55
55 84
32 51
23 37
57 94
47 82
44 77
53 95
52 95
47 91
11 22
48 99
42 91
23 54
17 41
38 95
25 64
22 57
25 67
36 98
19 55
17 55
19 63
22 77
10 35
26 93
14 53
6 25
20 87
22 100
18 90
19 95
16 89
17 97
11 83
9 77
4 37
3 33
3 67
2 47
2 52